50

100 24 260
98 30 544
97 15 250
97 1 563
92 5 539
92 9 402
92 28 436
91 24 436
88 26 683
84 5 702
83 12 349
82 22 352
77 11 244
77 17 630
76 11 343
75 2 386
74 22 494
73 10 606
72 20 696
70 14 420
70 1 517
67 4 696
66 20 667
65 9 636
63 19 724
62 2 343
62 16 563
62 6 634
62 2 547
58 11 420
57 16 435
57 12 255
54 13 706
53 4 389
52 5 688
52 3 496
50 12 256
46 11 584
45 7 582
43 12 352
42 1 638
41 6 318
41 8 668
41 7 374
40 1 357
37 9 445
37 2 670
36 6 278
33 2 281
33 9 738
